qe/outputs/qe/qe_queries_cbrdelay_obs_redo/T=5,eliminate=[I_0,I_1,I_2,I_3,I_4,L_3,L_4,lhs=L_2].smt2
; benchmark generated from python API
(set-info :status unknown)
(declare-fun S_4 () Real)
(declare-fun C () Real)
(declare-fun A_3 () Real)
(declare-fun L_2 () Real)
(declare-fun S_2 () Real)
(declare-fun S_3 () Real)
(declare-fun A_1 () Real)
(declare-fun L_1 () Real)
(declare-fun S_1 () Real)
(declare-fun L_0 () Real)
(declare-fun A_0 () Real)
(declare-fun S_0 () Real)
(declare-fun B () Real)
(declare-fun A_4 () Real)
(declare-fun A_2 () Real)
(assert
 (let (($x34 (>= L_0 0.0)))
 (let (($x635 (>= C 5.0)))
 (let (($x791 (>= B 5.0)))
 (let ((?x1310 (* (- 3.0) C)))
 (let ((?x229 (* (- 1.0) B)))
 (let ((?x1049 (* (- 1.0) A_0)))
 (let ((?x373 (* (- 1.0) A_4)))
 (let (($x4868 (<= (+ ?x373 A_3 ?x229 (* (- 4.0) C) S_4 (* (- 1.0) S_0)) 0.0)))
 (let (($x4143 (<= (+ L_1 (* (- 1.0) A_1) ?x373 A_3 ?x229 (* (- 2.0) C) S_4) 0.0)))
 (let (($x4906 (<= (+ ?x373 A_3 ?x229 (* (- 2.0) C) S_4 (* (- 1.0) S_2)) 0.0)))
 (let (($x4804 (<= (+ (* (- 1.0) S_3) ?x373 A_3 ?x229 (* (- 1.0) C) S_4) 0.0)))
 (let (($x1005 (<= (+ (* (- 1.0) L_2) A_3 (* (- 1.0) S_4)) 0.0)))
 (let (($x3087 (<= (+ (* (- 1.0) L_1) A_1 (* 2.0 C) (* (- 1.0) S_4)) 0.0)))
 (let (($x3627 (or $x1005 $x3087 (<= (+ (* 3.0 C) (* (- 1.0) S_4) S_0) 0.0))))
 (let (($x3127 (<= (+ (* (- 1.0) A_2) L_2 ?x373 A_3 (* (- 1.0) C) S_4) 0.0)))
 (let (($x61 (= L_2 L_1)))
 (let (($x3438 (or $x61 (<= (+ (* (- 1.0) A_2) L_2 (* (- 2.0) C) S_4 B) 0.0))))
 (let (($x7909 (or $x61 (<= (+ S_3 (* (- 1.0) A_2) L_2 (* (- 1.0) C) B) 0.0))))
 (let (($x6096 (or $x1005 (<= (+ A_2 (* (- 1.0) L_2) C (* (- 1.0) S_4) ?x229) 0.0))))
 (let (($x2797 (or (<= (+ C (* (- 1.0) S_2) S_0) 0.0) (<= (+ (* (- 1.0) L_1) A_1 (* (- 1.0) S_2)) 0.0))))
 (let (($x2786 (or (<= (+ (* (- 1.0) S_3) (* 2.0 C) S_0) 0.0) (<= (+ (* (- 1.0) L_1) A_1 (* (- 1.0) S_3) C) 0.0))))
 (let (($x1369 (<= (+ A_2 (* (- 1.0) L_2) (* (- 1.0) C) (* (- 1.0) S_2) ?x229) 0.0)))
 (let (($x1974 (<= (+ A_2 (* (- 1.0) L_2) (* (- 2.0) C) (* (- 1.0) S_1) ?x229) 0.0)))
 (let (($x51 (= L_1 L_0)))
 (let (($x1256 (not $x51)))
 (let (($x7831 (or $x61 $x1256 (<= (+ A_1 (* (- 1.0) A_2) L_2 C (* (- 1.0) L_0)) 0.0))))
 (let ((?x296 (* (- 1.0) C)))
 (let ((?x255 (* (- 1.0) L_2)))
 (let ((?x365 (* (- 1.0) A_1)))
 (let (($x5761 (<= 0.0 (+ L_1 ?x365 A_2 ?x255 ?x296 ?x229))))
 (let (($x7940 (or $x61 (<= (+ (* (- 1.0) A_2) L_2 (* 2.0 C) S_0 B) 0.0) $x5761)))
 (let (($x2267 (= (+ (* (- 1.0) L_1) A_1 (* (- 1.0) A_2) L_2 C B) 0.0)))
 (let (($x6114 (or $x51 (<= (+ L_1 ?x365 ?x373 A_3 (* (- 2.0) C) S_4) 0.0))))
 (let (($x1329 (<= (+ (* (- 1.0) L_1) A_1 (* 2.0 C) (* (- 1.0) S_4) ?x229) 0.0)))
 (let (($x452 (or $x51 $x61 (= (+ (* (- 1.0) L_1) A_1 (* (- 1.0) A_2) L_2 C) 0.0))))
 (let (($x1028 (<= (+ (* (- 1.0) L_1) A_1 (* (- 2.0) C) (* (- 1.0) S_0) ?x229) 0.0)))
 (let (($x108 (>= S_1 S_0)))
 (let (($x111 (>= S_2 S_1)))
 (let (($x114 (>= S_3 S_2)))
 (let (($x117 (>= S_4 S_3)))
 (let (($x119 (>= A_1 A_0)))
 (let (($x121 (>= A_3 A_2)))
 (let (($x122 (>= A_4 A_3)))
 (and (<= (+ A_1 (* (- 1.0) L_1)) S_3) (not (<= (+ A_2 ?x255) S_3)) $x122 $x121 $x119 $x117 $x114 $x111 $x108 (or (not (<= 0.0 (+ (* (- 1.0) L_1) L_0))) $x51) (<= (+ (* (- 1.0) L_1) A_1 (* (- 1.0) S_2) ?x229) 0.0) (<= (+ (* (- 1.0) L_1) A_1 ?x1049 ?x296 ?x229 L_0) 0.0) $x1028 (<= (+ (* (- 1.0) L_1) A_1 ?x296 (* (- 1.0) S_1) ?x229) 0.0) (or $x51 (<= (+ L_1 ?x365 C S_0 B) 0.0)) (<= (+ (* (- 1.0) L_1) A_1 (* (- 1.0) S_3) C ?x229) 0.0) (or (not $x61) $x51 (<= 0.0 (+ A_1 (* (- 1.0) A_2) C))) $x452 (or $x51 (<= (+ L_1 ?x365 ?x296 S_2 B) 0.0)) (or $x51 (<= (+ L_1 ?x365 S_1 B) 0.0)) (or $x1005 $x1329) (or $x51 (<= (+ L_1 ?x365 S_3 (* (- 2.0) C) B) 0.0)) (or $x51 (<= (+ L_1 ?x365 ?x1310 S_4 B) 0.0)) (<= (+ L_2 ?x373 S_4) 0.0) $x6114 (or $x61 (<= (+ (* (- 1.0) A_2) L_2 C S_1 B) 0.0)) (<= (+ (* (- 1.0) S_3) A_2 ?x255 ?x229) 0.0) (<= (+ A_2 ?x255 ?x1049 (* (- 2.0) C) ?x229 L_0) 0.0) (or $x61 (not (<= 0.0 (+ L_1 ?x255)))) (or $x61 (<= (+ (* (- 1.0) A_2) L_2 S_2 B) 0.0)) (or $x2267 (not $x5761)) $x7940 $x7831 $x1974 (<= (+ A_2 ?x255 ?x1310 (* (- 1.0) S_0) ?x229) 0.0) $x1369 $x2786 (<= (+ ?x1049 (* (- 2.0) C) S_2 L_0) 0.0) (<= (+ (* (- 2.0) C) S_2 (* (- 1.0) S_1)) 0.0) (<= (+ (* (- 2.0) C) S_1 (* (- 1.0) S_0)) 0.0) (<= (+ ?x1310 S_2 (* (- 1.0) S_0)) 0.0) $x2797 $x6096 $x7909 $x3438 (or $x61 $x3127) (<= (+ S_3 (* (- 2.0) C) (* (- 1.0) S_2)) 0.0) (or $x1005 (<= (+ (* 2.0 C) (* (- 1.0) S_4) S_1) 0.0)) $x3627 (or $x1005 (<= (+ C (* (- 1.0) S_4) S_2) 0.0)) (<= (+ S_3 (* (- 4.0) C) (* (- 1.0) S_0)) 0.0) (<= (+ (* (- 5.0) C) S_4 (* (- 1.0) S_0)) 0.0) $x4804 $x4906 $x4143 $x4868 (<= (+ ?x373 A_3 ?x229 ?x1310 S_4 (* (- 1.0) S_1)) 0.0) (<= (+ ?x373 A_3 ?x1049 ?x229 ?x1310 S_4 L_0) 0.0) $x791 $x635 $x34 (<= (+ ?x1049 S_0 L_0) 0.0) (<= (+ L_1 ?x365 S_1) 0.0) (<= (+ (* (- 1.0) S_3) C S_1) 0.0) (<= (+ ?x1049 ?x296 S_1 L_0) 0.0) (<= (+ L_1 ?x365 ?x296 S_2) 0.0) (<= (+ S_3 ?x1049 ?x1310 L_0) 0.0) (<= (+ ?x1049 (* (- 4.0) C) S_4 L_0) 0.0) (<= (+ S_3 ?x1310 (* (- 1.0) S_1)) 0.0) (<= (+ (* (- 4.0) C) S_4 (* (- 1.0) S_1)) 0.0) (<= (+ L_1 ?x365 S_3 (* (- 2.0) C)) 0.0) (<= (+ L_1 ?x365 ?x1310 S_4) 0.0) (<= (+ (* (- 1.0) S_3) (* (- 2.0) C) S_4) 0.0) (<= (+ ?x1310 S_4 (* (- 1.0) S_2)) 0.0) (<= (+ L_2 (* (- 1.0) A_3) ?x296 S_4) 0.0))))))))))))))))))))))))))))))))))))))))))))))
(check-sat)
