qe/outputs/qe/qe_queries_cbrdelay_obs_redo/T=5,eliminate=[I_0,I_1,I_2,I_3,I_4,L_3,L_4,lhs=L_2].smt2.z3
[And(A_1 + -1*L_1 <= S_3,
     Not(A_2 + -1*L_2 <= S_3),
     A_4 >= A_3,
     A_3 >= A_2,
     A_1 >= A_0,
     S_4 >= S_3,
     S_3 >= S_2,
     S_2 >= S_1,
     S_1 >= S_0,
     Or(Not(0 <= -1*L_1 + L_0), L_1 == L_0),
     -1*L_1 + A_1 + -1*S_2 + -1*B <= 0,
     -1*L_1 + A_1 + -1*A_0 + -1*C + -1*B + L_0 <= 0,
     -1*L_1 + A_1 + -2*C + -1*S_0 + -1*B <= 0,
     -1*L_1 + A_1 + -1*C + -1*S_1 + -1*B <= 0,
     Or(L_1 == L_0, L_1 + -1*A_1 + C + S_0 + B <= 0),
     -1*L_1 + A_1 + -1*S_3 + C + -1*B <= 0,
     Or(Not(L_2 == L_1), L_1 == L_0, 0 <= A_1 + -1*A_2 + C),
     Or(L_1 == L_0,
        L_2 == L_1,
        -1*L_1 + A_1 + -1*A_2 + L_2 + C == 0),
     Or(L_1 == L_0, L_1 + -1*A_1 + -1*C + S_2 + B <= 0),
     Or(L_1 == L_0, L_1 + -1*A_1 + S_1 + B <= 0),
     Or(-1*L_2 + A_3 + -1*S_4 <= 0,
        -1*L_1 + A_1 + 2*C + -1*S_4 + -1*B <= 0),
     Or(L_1 == L_0, L_1 + -1*A_1 + S_3 + -2*C + B <= 0),
     Or(L_1 == L_0, L_1 + -1*A_1 + -3*C + S_4 + B <= 0),
     L_2 + -1*A_4 + S_4 <= 0,
     Or(L_1 == L_0,
        L_1 + -1*A_1 + -1*A_4 + A_3 + -2*C + S_4 <= 0),
     Or(L_2 == L_1, -1*A_2 + L_2 + C + S_1 + B <= 0),
     -1*S_3 + A_2 + -1*L_2 + -1*B <= 0,
     A_2 + -1*L_2 + -1*A_0 + -2*C + -1*B + L_0 <= 0,
     Or(L_2 == L_1, Not(0 <= L_1 + -1*L_2)),
     Or(L_2 == L_1, -1*A_2 + L_2 + S_2 + B <= 0),
     Or(-1*L_1 + A_1 + -1*A_2 + L_2 + C + B == 0,
        Not(0 <= L_1 + -1*A_1 + A_2 + -1*L_2 + -1*C + -1*B)),
     Or(L_2 == L_1,
        -1*A_2 + L_2 + 2*C + S_0 + B <= 0,
        0 <= L_1 + -1*A_1 + A_2 + -1*L_2 + -1*C + -1*B),
     Or(L_2 == L_1,
        Not(L_1 == L_0),
        A_1 + -1*A_2 + L_2 + C + -1*L_0 <= 0),
     A_2 + -1*L_2 + -2*C + -1*S_1 + -1*B <= 0,
     A_2 + -1*L_2 + -3*C + -1*S_0 + -1*B <= 0,
     A_2 + -1*L_2 + -1*C + -1*S_2 + -1*B <= 0,
     Or(-1*S_3 + 2*C + S_0 <= 0,
        -1*L_1 + A_1 + -1*S_3 + C <= 0),
     -1*A_0 + -2*C + S_2 + L_0 <= 0,
     -2*C + S_2 + -1*S_1 <= 0,
     -2*C + S_1 + -1*S_0 <= 0,
     -3*C + S_2 + -1*S_0 <= 0,
     Or(C + -1*S_2 + S_0 <= 0, -1*L_1 + A_1 + -1*S_2 <= 0),
     Or(-1*L_2 + A_3 + -1*S_4 <= 0,
        A_2 + -1*L_2 + C + -1*S_4 + -1*B <= 0),
     Or(L_2 == L_1, S_3 + -1*A_2 + L_2 + -1*C + B <= 0),
     Or(L_2 == L_1, -1*A_2 + L_2 + -2*C + S_4 + B <= 0),
     Or(L_2 == L_1,
        -1*A_2 + L_2 + -1*A_4 + A_3 + -1*C + S_4 <= 0),
     S_3 + -2*C + -1*S_2 <= 0,
     Or(-1*L_2 + A_3 + -1*S_4 <= 0, 2*C + -1*S_4 + S_1 <= 0),
     Or(-1*L_2 + A_3 + -1*S_4 <= 0,
        -1*L_1 + A_1 + 2*C + -1*S_4 <= 0,
        3*C + -1*S_4 + S_0 <= 0),
     Or(-1*L_2 + A_3 + -1*S_4 <= 0, C + -1*S_4 + S_2 <= 0),
     S_3 + -4*C + -1*S_0 <= 0,
     -5*C + S_4 + -1*S_0 <= 0,
     -1*S_3 + -1*A_4 + A_3 + -1*B + -1*C + S_4 <= 0,
     -1*A_4 + A_3 + -1*B + -2*C + S_4 + -1*S_2 <= 0,
     L_1 + -1*A_1 + -1*A_4 + A_3 + -1*B + -2*C + S_4 <= 0,
     -1*A_4 + A_3 + -1*B + -4*C + S_4 + -1*S_0 <= 0,
     -1*A_4 + A_3 + -1*B + -3*C + S_4 + -1*S_1 <= 0,
     -1*A_4 + A_3 + -1*A_0 + -1*B + -3*C + S_4 + L_0 <= 0,
     B >= 5,
     C >= 5,
     L_0 >= 0,
     -1*A_0 + S_0 + L_0 <= 0,
     L_1 + -1*A_1 + S_1 <= 0,
     -1*S_3 + C + S_1 <= 0,
     -1*A_0 + -1*C + S_1 + L_0 <= 0,
     L_1 + -1*A_1 + -1*C + S_2 <= 0,
     S_3 + -1*A_0 + -3*C + L_0 <= 0,
     -1*A_0 + -4*C + S_4 + L_0 <= 0,
     S_3 + -3*C + -1*S_1 <= 0,
     -4*C + S_4 + -1*S_1 <= 0,
     L_1 + -1*A_1 + S_3 + -2*C <= 0,
     L_1 + -1*A_1 + -3*C + S_4 <= 0,
     -1*S_3 + -2*C + S_4 <= 0,
     -3*C + S_4 + -1*S_2 <= 0,
     L_2 + -1*A_3 + -1*C + S_4 <= 0)]